90 4005
1 2 58
1 3 245
1 4 95
1 5 82
1 6 113
1 7 134
1 8 252
1 9 218
1 10 180
1 11 184
1 12 238
1 13 145
1 14 206
1 15 291
1 16 50
1 17 102
1 18 62
1 19 91
1 20 151
1 21 42
1 22 263
1 23 148
1 24 176
1 25 162
1 26 105
1 27 195
1 28 62
1 29 81
1 30 69
1 31 83
1 32 297
1 33 260
1 34 18
1 35 223
1 36 101
1 37 165
1 38 54
1 39 290
1 40 155
1 41 256
1 42 244
1 43 177
1 44 115
1 45 21
1 46 192
1 47 239
1 48 11
1 49 70
1 50 94
1 51 57
1 52 159
1 53 189
1 54 264
1 55 14
1 56 38
1 57 110
1 58 126
1 59 284
1 60 110
1 61 275
1 62 233
1 63 87
1 64 116
1 65 238
1 66 34
1 67 152
1 68 208
1 69 263
1 70 152
1 71 297
1 72 202
1 73 72
1 74 174
1 75 121
1 76 70
1 77 70
1 78 167
1 79 224
1 80 205
1 81 31
1 82 251
1 83 99
1 84 224
1 85 73
1 86 221
1 87 154
1 88 279
1 89 196
1 90 195
2 3 83
2 4 127
2 5 124
2 6 95
2 7 277
2 8 273
2 9 242
2 10 95
2 11 285
2 12 17
2 13 153
2 14 12
2 15 88
2 16 131
2 17 253
2 18 17
2 19 182
2 20 265
2 21 55
2 22 127
2 23 240
2 24 146
2 25 262
2 26 206
2 27 186
2 28 253
2 29 194
2 30 76
2 31 299
2 32 56
2 33 106
2 34 100
2 35 126
2 36 102
2 37 161
2 38 22
2 39 116
2 40 192
2 41 140
2 42 106
2 43 133
2 44 33
2 45 220
2 46 166
2 47 143
2 48 279
2 49 276
2 50 202
2 51 57
2 52 147
2 53 26
2 54 158
2 55 103
2 56 269
2 57 107
2 58 190
2 59 59
2 60 64
2 61 193
2 62 293
2 63 106
2 64 274
2 65 75
2 66 232
2 67 238
2 68 283
2 69 44
2 70 298
2 71 26
2 72 198
2 73 286
2 74 30
2 75 216
2 76 52
2 77 265
2 78 105
2 79 284
2 80 145
2 81 128
2 82 227
2 83 12
2 84 241
2 85 74
2 86 48
2 87 68
2 88 252
2 89 233
2 90 168
3 4 235
3 5 230
3 6 200
3 7 178
3 8 133
3 9 104
3 10 54
3 11 68
3 12 150
3 13 19
3 14 42
3 15 132
3 16 108
3 17 129
3 18 74
3 19 154
3 20 162
3 21 45
3 22 193
3 23 141
3 24 12
3 25 63
3 26 59
3 27 108
3 28 283
3 29 55
3 30 34
3 31 213
3 32 97
3 33 174
3 34 271
3 35 57
3 36 192
3 37 141
3 38 74
3 39 157
3 40 33
3 41 80
3 42 113
3 43 250
3 44 169
3 45 115
3 46 29
3 47 12
3 48 180
3 49 35
3 50 240
3 51 143
3 52 79
3 53 86
3 54 145
3 55 167
3 56 229
3 57 116
3 58 47
3 59 67
3 60 193
3 61 75
3 62 167
3 63 62
3 64 167
3 65 38
3 66 112
3 67 106
3 68 201
3 69 14
3 70 101
3 71 79
3 72 131
3 73 151
3 74 136
3 75 279
3 76 61
3 77 98
3 78 233
3 79 284
3 80 188
3 81 17
3 82 57
3 83 193
3 84 196
3 85 258
3 86 132
3 87 240
3 88 67
3 89 140
3 90 195
4 5 55
4 6 91
4 7 83
4 8 136
4 9 67
4 10 154
4 11 162
4 12 70
4 13 250
4 14 188
4 15 82
4 16 297
4 17 211
4 18 66
4 19 208
4 20 116
4 21 29
4 22 73
4 23 47
4 24 59
4 25 140
4 26 163
4 27 83
4 28 189
4 29 66
4 30 223
4 31 228
4 32 170
4 33 218
4 34 119
4 35 173
4 36 51
4 37 99
4 38 61
4 39 73
4 40 127
4 41 26
4 42 142
4 43 16
4 44 239
4 45 74
4 46 247
4 47 212
4 48 239
4 49 42
4 50 137
4 51 28
4 52 83
4 53 260
4 54 52
4 55 217
4 56 42
4 57 43
4 58 75
4 59 144
4 60 227
4 61 210
4 62 12
4 63 210
4 64 145
4 65 213
4 66 62
4 67 212
4 68 105
4 69 68
4 70 173
4 71 109
4 72 148
4 73 69
4 74 72
4 75 57
4 76 298
4 77 251
4 78 238
4 79 151
4 80 140
4 81 179
4 82 151
4 83 298
4 84 63
4 85 158
4 86 216
4 87 77
4 88 25
4 89 174
4 90 74
5 6 29
5 7 15
5 8 85
5 9 209
5 10 223
5 11 35
5 12 236
5 13 30
5 14 218
5 15 91
5 16 199
5 17 250
5 18 242
5 19 161
5 20 85
5 21 270
5 22 105
5 23 133
5 24 257
5 25 105
5 26 18
5 27 49
5 28 158
5 29 104
5 30 251
5 31 21
5 32 114
5 33 129
5 34 167
5 35 200
5 36 298
5 37 294
5 38 147
5 39 90
5 40 57
5 41 138
5 42 44
5 43 192
5 44 298
5 45 27
5 46 229
5 47 183
5 48 185
5 49 206
5 50 39
5 51 291
5 52 11
5 53 97
5 54 264
5 55 282
5 56 60
5 57 240
5 58 249
5 59 224
5 60 211
5 61 267
5 62 251
5 63 207
5 64 67
5 65 67
5 66 292
5 67 179
5 68 73
5 69 291
5 70 291
5 71 47
5 72 204
5 73 295
5 74 223
5 75 136
5 76 283
5 77 224
5 78 228
5 79 86
5 80 186
5 81 108
5 82 68
5 83 143
5 84 201
5 85 252
5 86 110
5 87 33
5 88 47
5 89 221
5 90 180
6 7 109
6 8 77
6 9 262
6 10 140
6 11 101
6 12 253
6 13 129
6 14 173
6 15 151
6 16 287
6 17 161
6 18 25
6 19 89
6 20 108
6 21 256
6 22 64
6 23 72
6 24 95
6 25 242
6 26 271
6 27 30
6 28 228
6 29 128
6 30 36
6 31 90
6 32 47
6 33 61
6 34 190
6 35 59
6 36 173
6 37 191
6 38 255
6 39 261
6 40 262
6 41 216
6 42 207
6 43 37
6 44 178
6 45 118
6 46 105
6 47 203
6 48 27
6 49 287
6 50 163
6 51 209
6 52 55
6 53 84
6 54 84
6 55 290
6 56 121
6 57 87
6 58 157
6 59 212
6 60 234
6 61 277
6 62 296
6 63 264
6 64 114
6 65 231
6 66 241
6 67 264
6 68 258
6 69 43
6 70 211
6 71 177
6 72 96
6 73 74
6 74 61
6 75 163
6 76 266
6 77 124
6 78 258
6 79 86
6 80 265
6 81 78
6 82 46
6 83 224
6 84 218
6 85 177
6 86 134
6 87 132
6 88 249
6 89 179
6 90 177
7 8 89
7 9 129
7 10 60
7 11 245
7 12 116
7 13 208
7 14 200
7 15 198
7 16 10
7 17 224
7 18 161
7 19 223
7 20 138
7 21 48
7 22 58
7 23 85
7 24 118
7 25 69
7 26 290
7 27 254
7 28 247
7 29 127
7 30 97
7 31 225
7 32 202
7 33 182
7 34 162
7 35 292
7 36 43
7 37 38
7 38 11
7 39 189
7 40 28
7 41 96
7 42 204
7 43 243
7 44 11
7 45 179
7 46 18
7 47 250
7 48 267
7 49 35
7 50 159
7 51 57
7 52 130
7 53 202
7 54 281
7 55 43
7 56 108
7 57 285
7 58 195
7 59 76
7 60 11
7 61 10
7 62 101
7 63 279
7 64 238
7 65 264
7 66 129
7 67 283
7 68 109
7 69 55
7 70 84
7 71 246
7 72 144
7 73 120
7 74 55
7 75 191
7 76 146
7 77 278
7 78 114
7 79 156
7 80 50
7 81 203
7 82 268
7 83 153
7 84 184
7 85 296
7 86 172
7 87 295
7 88 120
7 89 297
7 90 260
8 9 210
8 10 121
8 11 24
8 12 172
8 13 85
8 14 95
8 15 19
8 16 264
8 17 283
8 18 273
8 19 245
8 20 150
8 21 220
8 22 100
8 23 215
8 24 151
8 25 86
8 26 116
8 27 196
8 28 203
8 29 90
8 30 168
8 31 167
8 32 136
8 33 39
8 34 135
8 35 203
8 36 207
8 37 85
8 38 179
8 39 101
8 40 21
8 41 232
8 42 45
8 43 46
8 44 217
8 45 247
8 46 194
8 47 66
8 48 284
8 49 290
8 50 294
8 51 254
8 52 168
8 53 110
8 54 37
8 55 141
8 56 210
8 57 292
8 58 14
8 59 176
8 60 111
8 61 280
8 62 168
8 63 38
8 64 39
8 65 148
8 66 49
8 67 173
8 68 220
8 69 61
8 70 286
8 71 220
8 72 100
8 73 94
8 74 122
8 75 26
8 76 262
8 77 279
8 78 115
8 79 110
8 80 231
8 81 16
8 82 66
8 83 283
8 84 65
8 85 246
8 86 262
8 87 92
8 88 201
8 89 103
8 90 212
9 10 239
9 11 149
9 12 268
9 13 141
9 14 27
9 15 30
9 16 159
9 17 195
9 18 89
9 19 183
9 20 20
9 21 215
9 22 44
9 23 73
9 24 221
9 25 131
9 26 17
9 27 227
9 28 152
9 29 295
9 30 98
9 31 288
9 32 14
9 33 62
9 34 146
9 35 228
9 36 107
9 37 240
9 38 29
9 39 224
9 40 34
9 41 255
9 42 51
9 43 283
9 44 220
9 45 18
9 46 255
9 47 258
9 48 121
9 49 217
9 50 181
9 51 247
9 52 32
9 53 47
9 54 255
9 55 92
9 56 87
9 57 144
9 58 212
9 59 13
9 60 173
9 61 267
9 62 299
9 63 41
9 64 89
9 65 262
9 66 261
9 67 226
9 68 149
9 69 95
9 70 205
9 71 94
9 72 22
9 73 60
9 74 178
9 75 294
9 76 221
9 77 141
9 78 13
9 79 153
9 80 266
9 81 273
9 82 16
9 83 296
9 84 15
9 85 34
9 86 284
9 87 74
9 88 136
9 89 255
9 90 174
10 11 298
10 12 171
10 13 296
10 14 104
10 15 231
10 16 203
10 17 171
10 18 23
10 19 262
10 20 86
10 21 226
10 22 197
10 23 289
10 24 245
10 25 164
10 26 215
10 27 108
10 28 64
10 29 165
10 30 188
10 31 99
10 32 24
10 33 275
10 34 173
10 35 51
10 36 149
10 37 60
10 38 246
10 39 14
10 40 130
10 41 231
10 42 256
10 43 59
10 44 134
10 45 179
10 46 41
10 47 234
10 48 149
10 49 295
10 50 135
10 51 52
10 52 173
10 53 242
10 54 77
10 55 190
10 56 98
10 57 168
10 58 216
10 59 220
10 60 69
10 61 186
10 62 158
10 63 276
10 64 161
10 65 46
10 66 53
10 67 124
10 68 110
10 69 47
10 70 163
10 71 11
10 72 27
10 73 103
10 74 252
10 75 60
10 76 260
10 77 93
10 78 221
10 79 292
10 80 179
10 81 117
10 82 139
10 83 206
10 84 29
10 85 185
10 86 201
10 87 210
10 88 122
10 89 274
10 90 84
11 12 107
11 13 196
11 14 237
11 15 72
11 16 183
11 17 273
11 18 118
11 19 104
11 20 136
11 21 77
11 22 88
11 23 60
11 24 144
11 25 195
11 26 207
11 27 214
11 28 235
11 29 297
11 30 85
11 31 15
11 32 135
11 33 83
11 34 64
11 35 153
11 36 12
11 37 255
11 38 131
11 39 25
11 40 30
11 41 298
11 42 42
11 43 90
11 44 27
11 45 72
11 46 144
11 47 63
11 48 73
11 49 231
11 50 55
11 51 274
11 52 143
11 53 125
11 54 170
11 55 29
11 56 275
11 57 172
11 58 38
11 59 207
11 60 53
11 61 44
11 62 272
11 63 104
11 64 202
11 65 52
11 66 171
11 67 22
11 68 73
11 69 243
11 70 23
11 71 20
11 72 147
11 73 128
11 74 212
11 75 89
11 76 94
11 77 57
11 78 65
11 79 186
11 80 141
11 81 110
11 82 19
11 83 249
11 84 288
11 85 162
11 86 28
11 87 17
11 88 246
11 89 263
11 90 220
12 13 64
12 14 281
12 15 193
12 16 24
12 17 90
12 18 251
12 19 129
12 20 230
12 21 50
12 22 31
12 23 136
12 24 148
12 25 13
12 26 25
12 27 122
12 28 57
12 29 186
12 30 54
12 31 231
12 32 142
12 33 121
12 34 296
12 35 119
12 36 171
12 37 133
12 38 240
12 39 281
12 40 274
12 41 76
12 42 292
12 43 17
12 44 85
12 45 146
12 46 190
12 47 206
12 48 285
12 49 70
12 50 41
12 51 94
12 52 132
12 53 218
12 54 283
12 55 97
12 56 76
12 57 114
12 58 51
12 59 90
12 60 282
12 61 181
12 62 80
12 63 277
12 64 214
12 65 167
12 66 197
12 67 232
12 68 27
12 69 166
12 70 283
12 71 97
12 72 197
12 73 37
12 74 235
12 75 14
12 76 92
12 77 236
12 78 199
12 79 92
12 80 68
12 81 22
12 82 107
12 83 84
12 84 181
12 85 24
12 86 280
12 87 192
12 88 74
12 89 85
12 90 203
13 14 209
13 15 139
13 16 143
13 17 28
13 18 111
13 19 205
13 20 252
13 21 169
13 22 91
13 23 176
13 24 22
13 25 296
13 26 186
13 27 248
13 28 152
13 29 216
13 30 86
13 31 163
13 32 107
13 33 283
13 34 108
13 35 226
13 36 37
13 37 202
13 38 210
13 39 151
13 40 140
13 41 89
13 42 85
13 43 270
13 44 232
13 45 117
13 46 182
13 47 258
13 48 204
13 49 197
13 50 41
13 51 209
13 52 148
13 53 276
13 54 49
13 55 224
13 56 33
13 57 284
13 58 60
13 59 186
13 60 74
13 61 136
13 62 212
13 63 181
13 64 237
13 65 102
13 66 242
13 67 197
13 68 249
13 69 264
13 70 88
13 71 219
13 72 145
13 73 172
13 74 278
13 75 276
13 76 216
13 77 186
13 78 57
13 79 73
13 80 237
13 81 228
13 82 242
13 83 238
13 84 39
13 85 196
13 86 33
13 87 144
13 88 198
13 89 124
13 90 180
14 15 82
14 16 81
14 17 244
14 18 252
14 19 184
14 20 177
14 21 218
14 22 164
14 23 287
14 24 293
14 25 100
14 26 253
14 27 70
14 28 264
14 29 258
14 30 180
14 31 17
14 32 250
14 33 72
14 34 15
14 35 262
14 36 56
14 37 219
14 38 154
14 39 225
14 40 84
14 41 203
14 42 256
14 43 270
14 44 195
14 45 55
14 46 44
14 47 19
14 48 115
14 49 299
14 50 172
14 51 140
14 52 262
14 53 278
14 54 105
14 55 269
14 56 102
14 57 268
14 58 284
14 59 124
14 60 136
14 61 64
14 62 175
14 63 85
14 64 65
14 65 250
14 66 160
14 67 142
14 68 231
14 69 89
14 70 168
14 71 143
14 72 45
14 73 24
14 74 58
14 75 164
14 76 176
14 77 200
14 78 141
14 79 206
14 80 103
14 81 123
14 82 192
14 83 36
14 84 27
14 85 61
14 86 152
14 87 216
14 88 219
14 89 283
14 90 298
15 16 290
15 17 153
15 18 120
15 19 40
15 20 226
15 21 105
15 22 34
15 23 254
15 24 84
15 25 208
15 26 179
15 27 25
15 28 241
15 29 78
15 30 155
15 31 63
15 32 20
15 33 127
15 34 149
15 35 180
15 36 260
15 37 161
15 38 137
15 39 126
15 40 132
15 41 90
15 42 107
15 43 286
15 44 122
15 45 230
15 46 140
15 47 33
15 48 251
15 49 109
15 50 287
15 51 27
15 52 108
15 53 12
15 54 17
15 55 64
15 56 274
15 57 10
15 58 275
15 59 13
15 60 238
15 61 276
15 62 207
15 63 177
15 64 162
15 65 112
15 66 140
15 67 280
15 68 141
15 69 205
15 70 284
15 71 52
15 72 97
15 73 182
15 74 111
15 75 227
15 76 28
15 77 270
15 78 265
15 79 283
15 80 209
15 81 19
15 82 120
15 83 281
15 84 87
15 85 53
15 86 93
15 87 138
15 88 145
15 89 171
15 90 145
16 17 79
16 18 11
16 19 166
16 20 81
16 21 70
16 22 125
16 23 139
16 24 200
16 25 229
16 26 163
16 27 131
16 28 259
16 29 201
16 30 10
16 31 236
16 32 153
16 33 292
16 34 161
16 35 146
16 36 296
16 37 170
16 38 238
16 39 201
16 40 33
16 41 120
16 42 182
16 43 248
16 44 206
16 45 288
16 46 109
16 47 127
16 48 83
16 49 161
16 50 49
16 51 117
16 52 38
16 53 204
16 54 98
16 55 13
16 56 209
16 57 93
16 58 44
16 59 280
16 60 162
16 61 288
16 62 139
16 63 142
16 64 92
16 65 28
16 66 33
16 67 129
16 68 237
16 69 295
16 70 47
16 71 290
16 72 127
16 73 181
16 74 136
16 75 213
16 76 86
16 77 82
16 78 234
16 79 71
16 80 237
16 81 216
16 82 242
16 83 291
16 84 89
16 85 265
16 86 124
16 87 164
16 88 84
16 89 144
16 90 54
17 18 283
17 19 255
17 20 298
17 21 83
17 22 208
17 23 185
17 24 97
17 25 224
17 26 105
17 27 162
17 28 276
17 29 46
17 30 68
17 31 226
17 32 26
17 33 275
17 34 180
17 35 119
17 36 236
17 37 188
17 38 278
17 39 200
17 40 42
17 41 62
17 42 123
17 43 118
17 44 150
17 45 256
17 46 235
17 47 67
17 48 174
17 49 59
17 50 194
17 51 265
17 52 90
17 53 93
17 54 253
17 55 41
17 56 293
17 57 214
17 58 91
17 59 45
17 60 138
17 61 174
17 62 161
17 63 103
17 64 31
17 65 81
17 66 177
17 67 176
17 68 120
17 69 120
17 70 270
17 71 283
17 72 251
17 73 167
17 74 183
17 75 196
17 76 153
17 77 35
17 78 202
17 79 20
17 80 281
17 81 144
17 82 271
17 83 121
17 84 297
17 85 61
17 86 52
17 87 276
17 88 70
17 89 42
17 90 214
18 19 193
18 20 51
18 21 198
18 22 46
18 23 37
18 24 99
18 25 166
18 26 179
18 27 54
18 28 54
18 29 101
18 30 153
18 31 20
18 32 205
18 33 125
18 34 17
18 35 180
18 36 156
18 37 280
18 38 94
18 39 247
18 40 273
18 41 203
18 42 34
18 43 166
18 44 94
18 45 140
18 46 239
18 47 199
18 48 44
18 49 138
18 50 17
18 51 164
18 52 176
18 53 270
18 54 99
18 55 241
18 56 277
18 57 85
18 58 146
18 59 125
18 60 155
18 61 147
18 62 158
18 63 286
18 64 174
18 65 270
18 66 159
18 67 161
18 68 46
18 69 294
18 70 37
18 71 95
18 72 74
18 73 59
18 74 298
18 75 139
18 76 156
18 77 263
18 78 56
18 79 147
18 80 89
18 81 248
18 82 164
18 83 200
18 84 32
18 85 11
18 86 230
18 87 208
18 88 168
18 89 172
18 90 281
19 20 165
19 21 197
19 22 196
19 23 124
19 24 31
19 25 23
19 26 252
19 27 104
19 28 93
19 29 124
19 30 172
19 31 242
19 32 153
19 33 285
19 34 139
19 35 221
19 36 130
19 37 113
19 38 177
19 39 251
19 40 142
19 41 184
19 42 258
19 43 134
19 44 272
19 45 22
19 46 172
19 47 71
19 48 98
19 49 281
19 50 59
19 51 260
19 52 247
19 53 143
19 54 59
19 55 249
19 56 109
19 57 244
19 58 35
19 59 200
19 60 272
19 61 62
19 62 100
19 63 199
19 64 228
19 65 102
19 66 260
19 67 231
19 68 250
19 69 255
19 70 204
19 71 164
19 72 99
19 73 216
19 74 143
19 75 194
19 76 251
19 77 272
19 78 28
19 79 127
19 80 248
19 81 151
19 82 215
19 83 32
19 84 77
19 85 59
19 86 59
19 87 172
19 88 191
19 89 73
19 90 110
20 21 192
20 22 124
20 23 137
20 24 174
20 25 70
20 26 249
20 27 293
20 28 285
20 29 196
20 30 94
20 31 269
20 32 152
20 33 205
20 34 74
20 35 19
20 36 272
20 37 260
20 38 182
20 39 22
20 40 263
20 41 146
20 42 18
20 43 17
20 44 299
20 45 199
20 46 34
20 47 27
20 48 196
20 49 163
20 50 202
20 51 288
20 52 151
20 53 291
20 54 153
20 55 272
20 56 117
20 57 134
20 58 137
20 59 253
20 60 97
20 61 251
20 62 200
20 63 294
20 64 43
20 65 132
20 66 155
20 67 70
20 68 196
20 69 145
20 70 236
20 71 42
20 72 292
20 73 204
20 74 264
20 75 229
20 76 206
20 77 201
20 78 33
20 79 103
20 80 254
20 81 46
20 82 251
20 83 40
20 84 80
20 85 128
20 86 250
20 87 80
20 88 195
20 89 119
20 90 175
21 22 132
21 23 168
21 24 39
21 25 282
21 26 205
21 27 133
21 28 285
21 29 107
21 30 130
21 31 36
21 32 237
21 33 224
21 34 126
21 35 262
21 36 217
21 37 82
21 38 104
21 39 155
21 40 263
21 41 107
21 42 165
21 43 47
21 44 69
21 45 44
21 46 195
21 47 84
21 48 44
21 49 239
21 50 229
21 51 197
21 52 22
21 53 196
21 54 112
21 55 216
21 56 219
21 57 236
21 58 281
21 59 10
21 60 208
21 61 134
21 62 19
21 63 42
21 64 20
21 65 179
21 66 212
21 67 55
21 68 158
21 69 102
21 70 113
21 71 135
21 72 179
21 73 118
21 74 217
21 75 296
21 76 267
21 77 86
21 78 143
21 79 217
21 80 277
21 81 233
21 82 140
21 83 11
21 84 64
21 85 254
21 86 86
21 87 164
21 88 250
21 89 76
21 90 46
22 23 148
22 24 30
22 25 216
22 26 186
22 27 128
22 28 249
22 29 19
22 30 43
22 31 83
22 32 221
22 33 284
22 34 255
22 35 172
22 36 178
22 37 179
22 38 192
22 39 227
22 40 80
22 41 184
22 42 262
22 43 38
22 44 79
22 45 139
22 46 286
22 47 210
22 48 51
22 49 101
22 50 171
22 51 208
22 52 190
22 53 260
22 54 26
22 55 69
22 56 229
22 57 278
22 58 56
22 59 186
22 60 68
22 61 27
22 62 253
22 63 192
22 64 89
22 65 197
22 66 279
22 67 17
22 68 44
22 69 267
22 70 160
22 71 65
22 72 123
22 73 292
22 74 36
22 75 160
22 76 180
22 77 214
22 78 28
22 79 45
22 80 84
22 81 277
22 82 206
22 83 228
22 84 81
22 85 191
22 86 281
22 87 13
22 88 211
22 89 100
22 90 40
23 24 187
23 25 197
23 26 288
23 27 63
23 28 263
23 29 166
23 30 297
23 31 204
23 32 241
23 33 95
23 34 271
23 35 207
23 36 191
23 37 212
23 38 164
23 39 17
23 40 101
23 41 183
23 42 184
23 43 280
23 44 167
23 45 138
23 46 237
23 47 295
23 48 216
23 49 230
23 50 69
23 51 252
23 52 58
23 53 266
23 54 83
23 55 277
23 56 21
23 57 104
23 58 201
23 59 234
23 60 286
23 61 68
23 62 187
23 63 155
23 64 58
23 65 154
23 66 159
23 67 298
23 68 139
23 69 100
23 70 201
23 71 51
23 72 177
23 73 186
23 74 44
23 75 161
23 76 99
23 77 176
23 78 18
23 79 19
23 80 138
23 81 70
23 82 299
23 83 295
23 84 24
23 85 141
23 86 284
23 87 266
23 88 253
23 89 103
23 90 274
24 25 85
24 26 112
24 27 87
24 28 294
24 29 81
24 30 140
24 31 171
24 32 187
24 33 31
24 34 164
24 35 212
24 36 218
24 37 109
24 38 153
24 39 213
24 40 10
24 41 226
24 42 220
24 43 290
24 44 242
24 45 11
24 46 240
24 47 60
24 48 49
24 49 12
24 50 133
24 51 100
24 52 213
24 53 62
24 54 287
24 55 61
24 56 249
24 57 67
24 58 149
24 59 283
24 60 223
24 61 103
24 62 232
24 63 161
24 64 103
24 65 138
24 66 108
24 67 210
24 68 178
24 69 294
24 70 257
24 71 31
24 72 187
24 73 104
24 74 231
24 75 171
24 76 237
24 77 45
24 78 205
24 79 14
24 80 208
24 81 40
24 82 15
24 83 152
24 84 179
24 85 61
24 86 184
24 87 108
24 88 26
24 89 278
24 90 250
25 26 203
25 27 176
25 28 96
25 29 227
25 30 226
25 31 10
25 32 15
25 33 223
25 34 232
25 35 12
25 36 69
25 37 45
25 38 151
25 39 253
25 40 107
25 41 41
25 42 108
25 43 102
25 44 290
25 45 79
25 46 259
25 47 43
25 48 89
25 49 261
25 50 202
25 51 163
25 52 217
25 53 61
25 54 133
25 55 51
25 56 224
25 57 297
25 58 110
25 59 295
25 60 102
25 61 236
25 62 281
25 63 215
25 64 174
25 65 298
25 66 25
25 67 244
25 68 282
25 69 87
25 70 68
25 71 44
25 72 55
25 73 244
25 74 155
25 75 297
25 76 285
25 77 82
25 78 80
25 79 144
25 80 129
25 81 64
25 82 224
25 83 174
25 84 232
25 85 53
25 86 281
25 87 211
25 88 214
25 89 154
25 90 140
26 27 32
26 28 69
26 29 251
26 30 294
26 31 22
26 32 247
26 33 297
26 34 219
26 35 173
26 36 98
26 37 112
26 38 275
26 39 227
26 40 223
26 41 287
26 42 255
26 43 150
26 44 81
26 45 218
26 46 130
26 47 94
26 48 22
26 49 180
26 50 109
26 51 266
26 52 234
26 53 31
26 54 118
26 55 232
26 56 278
26 57 40
26 58 193
26 59 29
26 60 208
26 61 247
26 62 60
26 63 143
26 64 265
26 65 81
26 66 256
26 67 88
26 68 202
26 69 216
26 70 118
26 71 170
26 72 295
26 73 120
26 74 102
26 75 247
26 76 221
26 77 201
26 78 287
26 79 142
26 80 14
26 81 234
26 82 185
26 83 117
26 84 57
26 85 47
26 86 247
26 87 118
26 88 191
26 89 18
26 90 175
27 28 48
27 29 150
27 30 108
27 31 225
27 32 43
27 33 100
27 34 54
27 35 13
27 36 237
27 37 241
27 38 222
27 39 77
27 40 254
27 41 171
27 42 228
27 43 260
27 44 131
27 45 232
27 46 176
27 47 69
27 48 115
27 49 291
27 50 222
27 51 231
27 52 160
27 53 136
27 54 217
27 55 30
27 56 281
27 57 146
27 58 151
27 59 55
27 60 163
27 61 153
27 62 291
27 63 71
27 64 187
27 65 102
27 66 108
27 67 210
27 68 35
27 69 136
27 70 292
27 71 105
27 72 272
27 73 59
27 74 10
27 75 273
27 76 84
27 77 264
27 78 26
27 79 223
27 80 152
27 81 125
27 82 268
27 83 39
27 84 273
27 85 281
27 86 68
27 87 281
27 88 20
27 89 214
27 90 188
28 29 123
28 30 27
28 31 213
28 32 129
28 33 75
28 34 114
28 35 32
28 36 137
28 37 40
28 38 223
28 39 133
28 40 201
28 41 299
28 42 206
28 43 204
28 44 256
28 45 299
28 46 44
28 47 16
28 48 10
28 49 164
28 50 170
28 51 267
28 52 53
28 53 61
28 54 50
28 55 131
28 56 254
28 57 157
28 58 220
28 59 274
28 60 87
28 61 170
28 62 68
28 63 47
28 64 200
28 65 297
28 66 139
28 67 42
28 68 260
28 69 48
28 70 105
28 71 223
28 72 41
28 73 107
28 74 43
28 75 273
28 76 265
28 77 105
28 78 129
28 79 275
28 80 20
28 81 72
28 82 27
28 83 33
28 84 190
28 85 142
28 86 170
28 87 282
28 88 125
28 89 183
28 90 154
29 30 135
29 31 277
29 32 232
29 33 212
29 34 108
29 35 38
29 36 194
29 37 132
29 38 230
29 39 88
29 40 153
29 41 46
29 42 277
29 43 282
29 44 242
29 45 187
29 46 30
29 47 32
29 48 252
29 49 60
29 50 57
29 51 265
29 52 151
29 53 237
29 54 52
29 55 59
29 56 241
29 57 71
29 58 31
29 59 187
29 60 163
29 61 53
29 62 106
29 63 252
29 64 212
29 65 237
29 66 70
29 67 107
29 68 104
29 69 149
29 70 82
29 71 27
29 72 17
29 73 87
29 74 18
29 75 47
29 76 65
29 77 80
29 78 180
29 79 297
29 80 234
29 81 136
29 82 122
29 83 288
29 84 250
29 85 92
29 86 193
29 87 23
29 88 184
29 89 238
29 90 164
30 31 291
30 32 260
30 33 136
30 34 150
30 35 86
30 36 189
30 37 36
30 38 207
30 39 187
30 40 78
30 41 217
30 42 27
30 43 258
30 44 36
30 45 284
30 46 281
30 47 227
30 48 251
30 49 91
30 50 43
30 51 92
30 52 234
30 53 208
30 54 36
30 55 241
30 56 168
30 57 207
30 58 62
30 59 215
30 60 292
30 61 44
30 62 264
30 63 212
30 64 166
30 65 149
30 66 254
30 67 227
30 68 293
30 69 120
30 70 53
30 71 203
30 72 135
30 73 56
30 74 64
30 75 256
30 76 123
30 77 112
30 78 136
30 79 197
30 80 293
30 81 113
30 82 167
30 83 16
30 84 291
30 85 20
30 86 48
30 87 228
30 88 72
30 89 25
30 90 279
31 32 258
31 33 54
31 34 111
31 35 138
31 36 121
31 37 27
31 38 190
31 39 83
31 40 207
31 41 84
31 42 208
31 43 129
31 44 14
31 45 219
31 46 30
31 47 46
31 48 85
31 49 70
31 50 193
31 51 40
31 52 131
31 53 118
31 54 145
31 55 226
31 56 222
31 57 35
31 58 238
31 59 80
31 60 123
31 61 107
31 62 288
31 63 93
31 64 11
31 65 58
31 66 180
31 67 61
31 68 108
31 69 129
31 70 184
31 71 234
31 72 137
31 73 25
31 74 225
31 75 230
31 76 85
31 77 288
31 78 227
31 79 175
31 80 153
31 81 181
31 82 136
31 83 83
31 84 92
31 85 258
31 86 144
31 87 206
31 88 110
31 89 150
31 90 203
32 33 139
32 34 163
32 35 200
32 36 17
32 37 66
32 38 103
32 39 73
32 40 113
32 41 61
32 42 80
32 43 165
32 44 167
32 45 89
32 46 122
32 47 55
32 48 57
32 49 246
32 50 130
32 51 104
32 52 189
32 53 153
32 54 35
32 55 21
32 56 218
32 57 265
32 58 166
32 59 97
32 60 226
32 61 21
32 62 113
32 63 32
32 64 189
32 65 181
32 66 236
32 67 130
32 68 100
32 69 26
32 70 228
32 71 128
32 72 71
32 73 68
32 74 129
32 75 211
32 76 262
32 77 218
32 78 219
32 79 269
32 80 270
32 81 33
32 82 82
32 83 132
32 84 292
32 85 257
32 86 238
32 87 86
32 88 49
32 89 29
32 90 150
33 34 216
33 35 232
33 36 248
33 37 137
33 38 126
33 39 80
33 40 96
33 41 238
33 42 48
33 43 196
33 44 130
33 45 103
33 46 224
33 47 144
33 48 41
33 49 18
33 50 271
33 51 132
33 52 110
33 53 147
33 54 78
33 55 152
33 56 146
33 57 102
33 58 264
33 59 282
33 60 78
33 61 214
33 62 76
33 63 177
33 64 216
33 65 34
33 66 203
33 67 146
33 68 234
33 69 154
33 70 126
33 71 188
33 72 142
33 73 93
33 74 169
33 75 141
33 76 291
33 77 215
33 78 68
33 79 89
33 80 275
33 81 131
33 82 216
33 83 158
33 84 254
33 85 204
33 86 100
33 87 43
33 88 40
33 89 156
33 90 198
34 35 238
34 36 228
34 37 288
34 38 185
34 39 265
34 40 209
34 41 128
34 42 187
34 43 220
34 44 49
34 45 22
34 46 293
34 47 21
34 48 57
34 49 212
34 50 261
34 51 220
34 52 46
34 53 20
34 54 238
34 55 72
34 56 26
34 57 260
34 58 216
34 59 135
34 60 132
34 61 253
34 62 142
34 63 112
34 64 151
34 65 91
34 66 40
34 67 134
34 68 78
34 69 57
34 70 72
34 71 128
34 72 70
34 73 244
34 74 248
34 75 200
34 76 137
34 77 240
34 78 287
34 79 89
34 80 36
34 81 188
34 82 234
34 83 166
34 84 126
34 85 176
34 86 145
34 87 89
34 88 61
34 89 286
34 90 44
35 36 55
35 37 240
35 38 173
35 39 190
35 40 273
35 41 295
35 42 27
35 43 272
35 44 43
35 45 285
35 46 31
35 47 285
35 48 117
35 49 99
35 50 90
35 51 281
35 52 170
35 53 120
35 54 227
35 55 227
35 56 151
35 57 223
35 58 36
35 59 108
35 60 276
35 61 66
35 62 168
35 63 13
35 64 244
35 65 209
35 66 185
35 67 152
35 68 27
35 69 276
35 70 106
35 71 280
35 72 137
35 73 23
35 74 149
35 75 269
35 76 181
35 77 85
35 78 182
35 79 134
35 80 103
35 81 89
35 82 259
35 83 16
35 84 131
35 85 255
35 86 269
35 87 85
35 88 118
35 89 163
35 90 167
36 37 26
36 38 229
36 39 234
36 40 204
36 41 126
36 42 241
36 43 113
36 44 227
36 45 50
36 46 181
36 47 150
36 48 39
36 49 152
36 50 255
36 51 203
36 52 237
36 53 166
36 54 163
36 55 248
36 56 79
36 57 93
36 58 151
36 59 291
36 60 254
36 61 149
36 62 247
36 63 80
36 64 186
36 65 126
36 66 222
36 67 229
36 68 54
36 69 217
36 70 33
36 71 243
36 72 145
36 73 152
36 74 99
36 75 209
36 76 44
36 77 29
36 78 167
36 79 140
36 80 33
36 81 40
36 82 84
36 83 275
36 84 12
36 85 182
36 86 228
36 87 155
36 88 149
36 89 159
36 90 226
37 38 140
37 39 132
37 40 69
37 41 165
37 42 12
37 43 78
37 44 187
37 45 185
37 46 196
37 47 286
37 48 273
37 49 73
37 50 217
37 51 127
37 52 76
37 53 164
37 54 95
37 55 197
37 56 117
37 57 108
37 58 97
37 59 205
37 60 132
37 61 187
37 62 223
37 63 105
37 64 239
37 65 19
37 66 116
37 67 225
37 68 205
37 69 201
37 70 245
37 71 299
37 72 168
37 73 155
37 74 76
37 75 284
37 76 63
37 77 168
37 78 158
37 79 117
37 80 77
37 81 167
37 82 87
37 83 92
37 84 193
37 85 255
37 86 118
37 87 82
37 88 225
37 89 127
37 90 40
38 39 27
38 40 290
38 41 71
38 42 125
38 43 130
38 44 83
38 45 166
38 46 175
38 47 228
38 48 65
38 49 30
38 50 186
38 51 115
38 52 254
38 53 35
38 54 30
38 55 186
38 56 221
38 57 165
38 58 79
38 59 23
38 60 113
38 61 269
38 62 134
38 63 272
38 64 246
38 65 149
38 66 269
38 67 113
38 68 265
38 69 99
38 70 171
38 71 117
38 72 264
38 73 282
38 74 270
38 75 31
38 76 199
38 77 251
38 78 232
38 79 191
38 80 237
38 81 79
38 82 92
38 83 69
38 84 45
38 85 224
38 86 86
38 87 66
38 88 193
38 89 29
38 90 239
39 40 131
39 41 71
39 42 37
39 43 143
39 44 299
39 45 93
39 46 11
39 47 285
39 48 103
39 49 54
39 50 29
39 51 179
39 52 258
39 53 233
39 54 126
39 55 119
39 56 121
39 57 158
39 58 67
39 59 132
39 60 66
39 61 25
39 62 120
39 63 159
39 64 296
39 65 219
39 66 118
39 67 80
39 68 73
39 69 192
39 70 254
39 71 88
39 72 292
39 73 162
39 74 190
39 75 295
39 76 229
39 77 120
39 78 118
39 79 238
39 80 266
39 81 119
39 82 60
39 83 168
39 84 191
39 85 176
39 86 105
39 87 201
39 88 133
39 89 39
39 90 247
40 41 155
40 42 114
40 43 175
40 44 25
40 45 83
40 46 295
40 47 213
40 48 131
40 49 168
40 50 117
40 51 78
40 52 168
40 53 231
40 54 101
40 55 286
40 56 250
40 57 74
40 58 120
40 59 233
40 60 117
40 61 239
40 62 106
40 63 118
40 64 154
40 65 44
40 66 196
40 67 205
40 68 246
40 69 20
40 70 55
40 71 114
40 72 230
40 73 191
40 74 49
40 75 178
40 76 60
40 77 84
40 78 100
40 79 124
40 80 230
40 81 44
40 82 232
40 83 234
40 84 93
40 85 282
40 86 143
40 87 232
40 88 168
40 89 277
40 90 41
41 42 25
41 43 133
41 44 151
41 45 30
41 46 201
41 47 98
41 48 40
41 49 23
41 50 154
41 51 153
41 52 208
41 53 19
41 54 107
41 55 32
41 56 250
41 57 205
41 58 81
41 59 22
41 60 184
41 61 263
41 62 243
41 63 100
41 64 130
41 65 46
41 66 173
41 67 88
41 68 185
41 69 22
41 70 285
41 71 162
41 72 229
41 73 44
41 74 150
41 75 209
41 76 259
41 77 266
41 78 268
41 79 120
41 80 36
41 81 10
41 82 221
41 83 15
41 84 188
41 85 293
41 86 131
41 87 66
41 88 107
41 89 257
41 90 196
42 43 262
42 44 89
42 45 163
42 46 120
42 47 126
42 48 220
42 49 87
42 50 261
42 51 255
42 52 107
42 53 253
42 54 222
42 55 15
42 56 139
42 57 246
42 58 296
42 59 29
42 60 54
42 61 160
42 62 253
42 63 224
42 64 243
42 65 212
42 66 261
42 67 144
42 68 252
42 69 48
42 70 246
42 71 111
42 72 235
42 73 28
42 74 97
42 75 167
42 76 229
42 77 195
42 78 118
42 79 29
42 80 41
42 81 138
42 82 24
42 83 268
42 84 138
42 85 236
42 86 109
42 87 86
42 88 245
42 89 203
42 90 210
43 44 88
43 45 144
43 46 101
43 47 64
43 48 239
43 49 74
43 50 32
43 51 161
43 52 191
43 53 52
43 54 179
43 55 178
43 56 132
43 57 299
43 58 238
43 59 271
43 60 199
43 61 100
43 62 152
43 63 165
43 64 159
43 65 231
43 66 58
43 67 100
43 68 259
43 69 182
43 70 11
43 71 199
43 72 256
43 73 285
43 74 283
43 75 276
43 76 232
43 77 41
43 78 151
43 79 65
43 80 258
43 81 131
43 82 178
43 83 189
43 84 92
43 85 87
43 86 54
43 87 132
43 88 104
43 89 56
43 90 174
44 45 45
44 46 26
44 47 16
44 48 296
44 49 241
44 50 83
44 51 253
44 52 61
44 53 21
44 54 55
44 55 205
44 56 171
44 57 104
44 58 54
44 59 147
44 60 118
44 61 270
44 62 31
44 63 163
44 64 248
44 65 198
44 66 191
44 67 273
44 68 117
44 69 196
44 70 264
44 71 176
44 72 144
44 73 32
44 74 100
44 75 152
44 76 79
44 77 19
44 78 219
44 79 35
44 80 160
44 81 94
44 82 80
44 83 182
44 84 11
44 85 296
44 86 126
44 87 198
44 88 40
44 89 216
44 90 272
45 46 117
45 47 100
45 48 297
45 49 235
45 50 20
45 51 111
45 52 41
45 53 20
45 54 137
45 55 222
45 56 195
45 57 143
45 58 181
45 59 231
45 60 140
45 61 245
45 62 113
45 63 151
45 64 250
45 65 214
45 66 201
45 67 89
45 68 218
45 69 201
45 70 290
45 71 256
45 72 132
45 73 134
45 74 102
45 75 191
45 76 175
45 77 234
45 78 290
45 79 161
45 80 268
45 81 159
45 82 76
45 83 12
45 84 127
45 85 298
45 86 182
45 87 93
45 88 69
45 89 105
45 90 155
46 47 291
46 48 212
46 49 159
46 50 133
46 51 42
46 52 206
46 53 77
46 54 153
46 55 254
46 56 19
46 57 126
46 58 157
46 59 183
46 60 129
46 61 229
46 62 35
46 63 243
46 64 183
46 65 295
46 66 131
46 67 157
46 68 30
46 69 122
46 70 115
46 71 287
46 72 268
46 73 222
46 74 125
46 75 114
46 76 239
46 77 155
46 78 299
46 79 132
46 80 235
46 81 193
46 82 142
46 83 101
46 84 247
46 85 52
46 86 62
46 87 121
46 88 203
46 89 124
46 90 153
47 48 89
47 49 91
47 50 297
47 51 105
47 52 156
47 53 58
47 54 288
47 55 196
47 56 220
47 57 298
47 58 130
47 59 277
47 60 147
47 61 268
47 62 244
47 63 33
47 64 220
47 65 111
47 66 276
47 67 76
47 68 267
47 69 49
47 70 64
47 71 58
47 72 154
47 73 23
47 74 80
47 75 198
47 76 113
47 77 65
47 78 155
47 79 293
47 80 232
47 81 286
47 82 285
47 83 12
47 84 282
47 85 194
47 86 180
47 87 18
47 88 250
47 89 128
47 90 51
48 49 209
48 50 36
48 51 293
48 52 94
48 53 291
48 54 56
48 55 78
48 56 105
48 57 44
48 58 219
48 59 113
48 60 294
48 61 67
48 62 165
48 63 38
48 64 218
48 65 149
48 66 182
48 67 268
48 68 162
48 69 172
48 70 104
48 71 100
48 72 47
48 73 225
48 74 128
48 75 174
48 76 114
48 77 243
48 78 50
48 79 61
48 80 98
48 81 248
48 82 279
48 83 232
48 84 21
48 85 86
48 86 271
48 87 253
48 88 85
48 89 247
48 90 253
49 50 281
49 51 213
49 52 206
49 53 264
49 54 290
49 55 104
49 56 49
49 57 191
49 58 142
49 59 42
49 60 204
49 61 175
49 62 141
49 63 127
49 64 113
49 65 247
49 66 113
49 67 127
49 68 249
49 69 205
49 70 76
49 71 115
49 72 156
49 73 140
49 74 251
49 75 39
49 76 49
49 77 34
49 78 212
49 79 68
49 80 221
49 81 269
49 82 214
49 83 295
49 84 230
49 85 124
49 86 96
49 87 49
49 88 232
49 89 68
49 90 51
50 51 186
50 52 233
50 53 270
50 54 143
50 55 18
50 56 192
50 57 285
50 58 10
50 59 181
50 60 298
50 61 245
50 62 89
50 63 10
50 64 251
50 65 240
50 66 261
50 67 288
50 68 22
50 69 215
50 70 267
50 71 130
50 72 212
50 73 113
50 74 151
50 75 187
50 76 266
50 77 123
50 78 120
50 79 79
50 80 200
50 81 198
50 82 247
50 83 141
50 84 26
50 85 111
50 86 160
50 87 73
50 88 191
50 89 223
50 90 79
51 52 286
51 53 149
51 54 58
51 55 197
51 56 152
51 57 196
51 58 227
51 59 81
51 60 102
51 61 200
51 62 162
51 63 182
51 64 268
51 65 60
51 66 103
51 67 23
51 68 227
51 69 168
51 70 27
51 71 137
51 72 20
51 73 71
51 74 124
51 75 16
51 76 196
51 77 284
51 78 49
51 79 228
51 80 253
51 81 296
51 82 98
51 83 258
51 84 193
51 85 165
51 86 223
51 87 10
51 88 215
51 89 145
51 90 205
52 53 291
52 54 111
52 55 260
52 56 266
52 57 143
52 58 97
52 59 289
52 60 130
52 61 150
52 62 114
52 63 48
52 64 128
52 65 77
52 66 223
52 67 67
52 68 255
52 69 160
52 70 283
52 71 31
52 72 162
52 73 173
52 74 84
52 75 219
52 76 152
52 77 276
52 78 72
52 79 220
52 80 274
52 81 250
52 82 246
52 83 205
52 84 50
52 85 117
52 86 20
52 87 90
52 88 27
52 89 37
52 90 236
53 54 102
53 55 197
53 56 52
53 57 243
53 58 272
53 59 213
53 60 227
53 61 222
53 62 200
53 63 243
53 64 231
53 65 87
53 66 188
53 67 67
53 68 238
53 69 198
53 70 255
53 71 101
53 72 160
53 73 123
53 74 31
53 75 103
53 76 258
53 77 280
53 78 29
53 79 275
53 80 97
53 81 277
53 82 192
53 83 226
53 84 234
53 85 10
53 86 232
53 87 17
53 88 161
53 89 90
53 90 86
54 55 135
54 56 267
54 57 70
54 58 235
54 59 148
54 60 197
54 61 93
54 62 162
54 63 143
54 64 204
54 65 228
54 66 133
54 67 128
54 68 148
54 69 269
54 70 200
54 71 211
54 72 187
54 73 237
54 74 28
54 75 193
54 76 47
54 77 106
54 78 51
54 79 240
54 80 109
54 81 210
54 82 175
54 83 130
54 84 154
54 85 200
54 86 278
54 87 169
54 88 71
54 89 144
54 90 64
55 56 167
55 57 198
55 58 202
55 59 85
55 60 98
55 61 243
55 62 225
55 63 176
55 64 184
55 65 16
55 66 60
55 67 299
55 68 149
55 69 103
55 70 162
55 71 122
55 72 191
55 73 210
55 74 198
55 75 147
55 76 124
55 77 12
55 78 18
55 79 113
55 80 68
55 81 182
55 82 222
55 83 191
55 84 143
55 85 69
55 86 145
55 87 73
55 88 64
55 89 93
55 90 131
56 57 293
56 58 109
56 59 271
56 60 25
56 61 53
56 62 230
56 63 274
56 64 47
56 65 66
56 66 48
56 67 148
56 68 85
56 69 163
56 70 149
56 71 270
56 72 198
56 73 161
56 74 173
56 75 299
56 76 114
56 77 172
56 78 189
56 79 133
56 80 26
56 81 157
56 82 182
56 83 81
56 84 207
56 85 209
56 86 269
56 87 59
56 88 190
56 89 143
56 90 208
57 58 177
57 59 226
57 60 58
57 61 12
57 62 16
57 63 23
57 64 293
57 65 58
57 66 206
57 67 219
57 68 205
57 69 226
57 70 30
57 71 33
57 72 50
57 73 57
57 74 211
57 75 71
57 76 241
57 77 131
57 78 17
57 79 224
57 80 60
57 81 202
57 82 53
57 83 108
57 84 205
57 85 39
57 86 75
57 87 93
57 88 93
57 89 131
57 90 210
58 59 215
58 60 277
58 61 230
58 62 229
58 63 99
58 64 94
58 65 265
58 66 47
58 67 263
58 68 223
58 69 45
58 70 265
58 71 30
58 72 292
58 73 146
58 74 142
58 75 235
58 76 193
58 77 162
58 78 107
58 79 139
58 80 256
58 81 85
58 82 119
58 83 293
58 84 227
58 85 194
58 86 229
58 87 270
58 88 23
58 89 246
58 90 98
59 60 184
59 61 246
59 62 201
59 63 289
59 64 267
59 65 289
59 66 79
59 67 166
59 68 97
59 69 182
59 70 236
59 71 106
59 72 136
59 73 115
59 74 251
59 75 75
59 76 226
59 77 221
59 78 39
59 79 257
59 80 232
59 81 247
59 82 76
59 83 92
59 84 90
59 85 36
59 86 271
59 87 265
59 88 230
59 89 233
59 90 143
60 61 89
60 62 254
60 63 201
60 64 184
60 65 138
60 66 14
60 67 125
60 68 224
60 69 175
60 70 210
60 71 146
60 72 219
60 73 124
60 74 296
60 75 42
60 76 86
60 77 146
60 78 22
60 79 245
60 80 98
60 81 290
60 82 237
60 83 74
60 84 219
60 85 186
60 86 198
60 87 158
60 88 218
60 89 265
60 90 17
61 62 63
61 63 113
61 64 245
61 65 144
61 66 238
61 67 223
61 68 275
61 69 36
61 70 141
61 71 276
61 72 84
61 73 272
61 74 212
61 75 230
61 76 72
61 77 213
61 78 193
61 79 282
61 80 14
61 81 257
61 82 253
61 83 59
61 84 117
61 85 292
61 86 57
61 87 65
61 88 128
61 89 128
61 90 107
62 63 53
62 64 202
62 65 176
62 66 81
62 67 254
62 68 169
62 69 159
62 70 220
62 71 156
62 72 153
62 73 130
62 74 207
62 75 190
62 76 125
62 77 81
62 78 110
62 79 148
62 80 219
62 81 120
62 82 147
62 83 208
62 84 169
62 85 40
62 86 173
62 87 283
62 88 191
62 89 89
62 90 66
63 64 239
63 65 67
63 66 94
63 67 36
63 68 209
63 69 179
63 70 210
63 71 250
63 72 175
63 73 87
63 74 44
63 75 193
63 76 142
63 77 232
63 78 272
63 79 88
63 80 65
63 81 117
63 82 238
63 83 262
63 84 125
63 85 31
63 86 298
63 87 20
63 88 273
63 89 237
63 90 209
64 65 103
64 66 95
64 67 30
64 68 253
64 69 273
64 70 233
64 71 155
64 72 261
64 73 85
64 74 200
64 75 130
64 76 79
64 77 218
64 78 34
64 79 40
64 80 86
64 81 263
64 82 164
64 83 21
64 84 192
64 85 258
64 86 171
64 87 53
64 88 28
64 89 84
64 90 205
65 66 247
65 67 286
65 68 114
65 69 51
65 70 99
65 71 216
65 72 62
65 73 16
65 74 46
65 75 82
65 76 284
65 77 184
65 78 112
65 79 183
65 80 84
65 81 246
65 82 236
65 83 177
65 84 260
65 85 255
65 86 178
65 87 255
65 88 232
65 89 74
65 90 269
66 67 80
66 68 132
66 69 225
66 70 188
66 71 120
66 72 299
66 73 15
66 74 142
66 75 63
66 76 249
66 77 149
66 78 22
66 79 82
66 80 244
66 81 113
66 82 258
66 83 43
66 84 127
66 85 295
66 86 61
66 87 131
66 88 272
66 89 129
66 90 296
67 68 278
67 69 108
67 70 221
67 71 224
67 72 231
67 73 76
67 74 279
67 75 206
67 76 95
67 77 40
67 78 74
67 79 106
67 80 139
67 81 152
67 82 150
67 83 267
67 84 181
67 85 160
67 86 284
67 87 117
67 88 34
67 89 168
67 90 77
68 69 193
68 70 58
68 71 237
68 72 108
68 73 296
68 74 244
68 75 241
68 76 210
68 77 285
68 78 271
68 79 55
68 80 201
68 81 75
68 82 104
68 83 184
68 84 105
68 85 123
68 86 274
68 87 87
68 88 131
68 89 88
68 90 170
69 70 168
69 71 114
69 72 218
69 73 175
69 74 98
69 75 235
69 76 18
69 77 246
69 78 179
69 79 287
69 80 180
69 81 97
69 82 105
69 83 267
69 84 167
69 85 10
69 86 216
69 87 134
69 88 154
69 89 251
69 90 76
70 71 223
70 72 187
70 73 216
70 74 281
70 75 37
70 76 93
70 77 49
70 78 281
70 79 229
70 80 186
70 81 138
70 82 61
70 83 239
70 84 63
70 85 165
70 86 286
70 87 266
70 88 277
70 89 194
70 90 203
71 72 222
71 73 252
71 74 79
71 75 269
71 76 96
71 77 293
71 78 289
71 79 20
71 80 265
71 81 56
71 82 158
71 83 220
71 84 259
71 85 102
71 86 62
71 87 184
71 88 118
71 89 131
71 90 211
72 73 226
72 74 190
72 75 73
72 76 103
72 77 23
72 78 128
72 79 244
72 80 254
72 81 295
72 82 100
72 83 121
72 84 63
72 85 73
72 86 195
72 87 56
72 88 117
72 89 268
72 90 175
73 74 20
73 75 61
73 76 283
73 77 169
73 78 288
73 79 285
73 80 271
73 81 41
73 82 92
73 83 231
73 84 270
73 85 194
73 86 88
73 87 70
73 88 145
73 89 187
73 90 28
74 75 157
74 76 94
74 77 239
74 78 97
74 79 237
74 80 113
74 81 106
74 82 23
74 83 154
74 84 16
74 85 20
74 86 213
74 87 67
74 88 239
74 89 233
74 90 285
75 76 220
75 77 174
75 78 161
75 79 35
75 80 90
75 81 191
75 82 100
75 83 198
75 84 283
75 85 147
75 86 100
75 87 284
75 88 62
75 89 256
75 90 85
76 77 80
76 78 278
76 79 173
76 80 245
76 81 180
76 82 94
76 83 105
76 84 220
76 85 61
76 86 167
76 87 147
76 88 215
76 89 159
76 90 278
77 78 108
77 79 27
77 80 171
77 81 233
77 82 73
77 83 218
77 84 264
77 85 135
77 86 147
77 87 90
77 88 179
77 89 278
77 90 232
78 79 151
78 80 48
78 81 89
78 82 294
78 83 68
78 84 197
78 85 112
78 86 298
78 87 14
78 88 267
78 89 170
78 90 51
79 80 12
79 81 87
79 82 37
79 83 157
79 84 46
79 85 71
79 86 184
79 87 98
79 88 27
79 89 220
79 90 260
80 81 114
80 82 117
80 83 67
80 84 172
80 85 217
80 86 180
80 87 110
80 88 57
80 89 164
80 90 155
81 82 220
81 83 123
81 84 266
81 85 114
81 86 92
81 87 240
81 88 84
81 89 124
81 90 54
82 83 238
82 84 246
82 85 279
82 86 170
82 87 11
82 88 21
82 89 151
82 90 32
83 84 12
83 85 144
83 86 262
83 87 273
83 88 200
83 89 127
83 90 261
84 85 154
84 86 190
84 87 227
84 88 240
84 89 135
84 90 233
85 86 92
85 87 223
85 88 242
85 89 175
85 90 266
86 87 97
86 88 79
86 89 142
86 90 270
87 88 13
87 89 179
87 90 24
88 89 273
88 90 91
89 90 168
